19 0 19 0 21 0 21 0 22 0 22 0 21 0 21 0 19 0 19 0 14 0 14 0 10 0 10 0 7 0 7 0 17 0 17 0 15 0 15 0 14 0 15 0 17 0 15 3
25 0 15 0 15 0 17 0 17 0 19 0 19 0 20 0 20 0 17 0 17 0 12 0 12 0 15 0 15 0 14 0 14 0 12 0 14 0 15 0 14 3
14 3 7 0 10 0 14 0 12 0 14 3 7 0 10 0 14 0 12 0 14 3
7 0 10 0 15 0 14 0 15 3 15 0 14 0 15 0 16 0 17 3 17 0 19 0 17 0 19 0 14 4 
14 3 7 0 10 0 14 0 12 0 14 3 7 0 10 0 14 0 12 0 14 3
7 0 10 0 15 0 14 0 15 3 15 0 14 0 15 0 16 0 17 3 17 0 19 0 17 0 19 0 14 4 
22 4 14 0 14 0 15 0 15 4 12 0 12 0 21 0 21 4 12 0 12 0 14 0 14 3 10 0 10 0 19 0 17 0 19 4 10 0 10 0 12 0 12 4 9 0 14 0 12 0 14 4 
22 4 22 0 22 0 24 0 24 4 22 0 21 0 19 0 17 4 17 0 19 0 17 0 14 4 
22 4 22 0 22 0 24 0 24 4 22 0 21 0 19 0 17 4 17 0 19 0 17 0 14 4 
10 4 10 0 10 0 12 0 12 4 10 0 9 0 7 0 5 4 5 0 7 0 5 0 7 4
14 3 7 0 10 0 14 0 12 0 14 3 7 0 10 0 14 0 12 0 14 3
7 0 10 0 15 0 14 0 15 3 15 0 14 0 15 0 16 0 17 3 17 0 19 0 17 0 19 0 14 4 
14 3 7 0 10 0 14 0 12 0 14 3 7 0 10 0 14 0 12 0 14 3
7 0 10 0 15 0 14 0 15 3 15 0 14 0 15 0 16 0 17 3 17 0 19 0 17 0 19 0 14 4 
22 4 14 0 14 0 15 0 15 4 12 0 12 0 21 0 21 4 12 0 12 0 14 0 14 3 10 0 10 0 19 0 17 0 19 4 10 0 10 0 12 0 12 4 9 0 14 0 12 0 14 4 
22 4 22 0 22 0 24 0 24 4 22 0 21 0 19 0 17 4 17 0 19 0 17 0 14 4 
22 4 22 0 22 0 24 0 24 4 22 0 21 0 19 0 17 4 17 0 19 0 17 0 14 4 
10 4 10 0 10 0 12 0 12 4 10 0 9 0 7 0 5 4 5 0 7 0 5 0 7 4